4388.34 0
0 82 84 50 66 60 41 34 37 80 57 70 0
0 13 87 67 69 71 73 74 0
0 15 4 100 86 54 36 46 0
0 5 1 2 89 97 72 48 51 0
0 19 22 75 3 21 27 38 33 39 0
0 24 26 91 94 10 7 83 29 28 40 42 59 64 0
0 17 92 98 23 81 31 43 63 55 0
0 65 32 79 18 99 8 11 0
0 14 20 90 9 58 47 56 45 76 52 0
0 88 95 6 30 62 61 0
0 25 77 78 53 49 35 44 68 85 16 93 96 12 0
